
  32    4
  10   10   10   10

   0   0   0   0   0   2 2 6 
   1   1   1   0   1   1 3 
   5   3   7   1   0   1 4 
   7   4   3   3   0   2 15 5 
   5   4   0   2   4   2 10 7 
   5   0   6   3   3   1 7 
   4   5   0   4   3   1 8 
   6   0   3   4   5   1 9 
   9   7   2   0   1   2 22 11 
   4   5   4   4   0   2 22 12 
   9   2   8   0   6   1 12 
   4   0   3   3   3   1 13 
   2   2   2   0   4   1 14 
   8   6   3   1   0   2 20 16 
   9   1   2   5   0   2 20 18 
   6   3   0   8   4   1 17 
   7   5   6   0   2   1 18 
   5   3   0   6   3   1 19 
   2   3   5   2   0   1 21 
   6   2   0   1   7   1 21 
   8   4   5   0   6   1 23 
   7   4   3   0   3   1 23 
   4   5   3   0   3   1 24 
   8   1   0   6   2   2 30 25 
  10   6   5   7   0   1 26 
  10   2   0   5   6   1 27 
   5   6   2   0   8   1 28 
   8   8   5   0   7   1 29 
   4   5   5   7   0   1 31 
   3   8   5   0   4   1 31 
   7   3   0   4   3   1 32
   0   0   0   0   0   0 
